(set-logic ALL)
(declare-const BAV1 Bool)
(declare-const BAV2 Bool)
(set-info :smt-lib-version 2.0)
(set-info :category "crafted")
(define-sort bv () (_ BitVec 4))
(define-sort abv () (Array bv bv))
(declare-fun v0 () (_ BitVec 4))
(declare-fun v1 () (_ BitVec 4))
(declare-fun a () abv)
(declare-fun b () abv)
(declare-fun c () abv)
(assert (not (= (select a (select b (select c v0))) (select a (select b (select c v1))))))
(assert (= v0 v1))
(assert (= BAV1 (= (select a (select b (select c v0))) (select a (select b (select c v1))))))
(assert (= BAV2 (= v0 v1)))
(check-sat)
(get-model)
(exit)